NAME : portcgen-27-23
COMMENT : portcgen N=27, seed=23
TYPE : TSP
DIMENSION : 27
EDGE_WEIGHT_TYPE : EUC_2D
NODE_COORD_SECTION
1 119943 -28017
2 49774 43830
3 -69090 75202
4 201153 10909
5 317786 44529
6 230107 257291
7 402987 -219352
8 -101615 -28743
9 331655 -87679
10 68754 -140389
11 72562 11068
12 75006 -3013
13 -278040 -232466
14 -133002 -76826
15 -19772 -87758
16 6376 -218880
17 -256515 -120860
18 -158180 -46069
19 -99733 107331
20 -170360 39982
21 187215 145811
22 153059 -130398
23 -54708 -111443
24 -80394 -85397
25 -23591 389674
26 -68800 -7707
27 -234778 -276882
